100
120
96
94
94
92
92
92
91
88
88
87
87
85
84
84
83
82
81
80
80
80
80
79
78
76
75
75
74
73
71
69
68
66
65
65
65
63
62
62
62
62
60
58
58
58
58
57
54
54
54
53
53
53
53
52
51
50
50
50
49
49
47
45
44
44
43
41
39
38
36
36
36
34
34
33
32
31
31
30
30
26
25
24
24
23
22
21
20
20
19
18
18
18
16
16
16
15
14
13
13
12
